p cnf 71 202
10 0
11 0
13 18 0
-13 -18 0
-13 -60 56 0
-13 -60 26 0
-44 -61 59 0
-44 -61 30 0
-18 -62 56 0
-18 -62 31 0
-50 -63 59 0
-50 -63 35 0
-13 -9 -64 26 0
-13 -9 -64 44 0
-13 -9 -64 -44 0
-44 -36 -65 30 0
-44 -36 -65 49 0
-44 -36 -65 -49 0
-13 -10 -66 31 0
-13 -10 -66 50 0
-13 -10 -66 -44 0
-44 -38 -67 35 0
-44 -38 -67 55 0
-44 -38 -67 -49 0
-18 -11 -68 26 0
-18 -11 -68 44 0
-18 -11 -68 -50 0
-50 -40 -69 30 0
-50 -40 -69 49 0
-50 -40 -69 -55 0
-18 -12 -70 31 0
-18 -12 -70 50 0
-18 -12 -70 -50 0
-50 -42 -71 35 0
-50 -42 -71 55 0
-50 -42 -71 -55 0
-1 26 0
-13 -60 2 0
-2 13 0
-2 60 0
-13 -9 -64 3 0
-3 13 0
-3 9 0
-3 64 0
-18 -11 -68 4 0
-4 18 0
-4 11 0
-4 68 0
2 3 4 1 -26 0
-26 30 0
-44 -61 27 0
-27 44 0
-27 61 0
-44 -36 -65 28 0
-28 44 0
-28 36 0
-28 65 0
-50 -40 -69 29 0
-29 50 0
-29 40 0
-29 69 0
27 28 29 26 -30 0
-5 31 0
-18 -62 6 0
-6 18 0
-6 62 0
-13 -10 -66 7 0
-7 13 0
-7 10 0
-7 66 0
-18 -12 -70 8 0
-8 18 0
-8 12 0
-8 70 0
6 7 8 5 -31 0
-31 35 0
-50 -63 32 0
-32 50 0
-32 63 0
-44 -38 -67 33 0
-33 44 0
-33 38 0
-33 67 0
-50 -42 -71 34 0
-34 50 0
-34 42 0
-34 71 0
32 33 34 31 -35 0
-9 36 0
9 -36 0
-36 37 0
36 -37 0
-10 38 0
10 -38 0
-38 39 0
38 -39 0
-11 40 0
11 -40 0
-40 41 0
40 -41 0
-12 42 0
12 -42 0
-42 43 0
42 -43 0
-13 -9 -64 14 0
-14 13 0
-14 9 0
-14 64 0
-13 -10 -66 15 0
-15 13 0
-15 10 0
-15 66 0
14 15 -13 44 0
-13 -9 -64 16 0
-16 13 0
-16 9 0
-16 64 0
-18 -11 -68 17 0
-17 18 0
-17 11 0
-17 68 0
16 17 13 -44 0
-44 -36 -65 45 0
-45 44 0
-45 36 0
-45 65 0
-44 -38 -67 46 0
-46 44 0
-46 38 0
-46 67 0
45 46 -44 49 0
-44 -36 -65 47 0
-47 44 0
-47 36 0
-47 65 0
-50 -40 -69 48 0
-48 50 0
-48 40 0
-48 69 0
47 48 44 -49 0
-18 -11 -68 19 0
-19 18 0
-19 11 0
-19 68 0
-18 -12 -70 20 0
-20 18 0
-20 12 0
-20 70 0
19 20 -18 50 0
-13 -10 -66 21 0
-21 13 0
-21 10 0
-21 66 0
-18 -12 -70 22 0
-22 18 0
-22 12 0
-22 70 0
21 22 18 -50 0
-50 -40 -69 51 0
-51 50 0
-51 40 0
-51 69 0
-50 -42 -71 52 0
-52 50 0
-52 42 0
-52 71 0
51 52 -50 55 0
-44 -38 -67 53 0
-53 44 0
-53 38 0
-53 67 0
-50 -42 -71 54 0
-54 50 0
-54 42 0
-54 71 0
53 54 50 -55 0
-23 56 0
-13 -60 24 0
-24 13 0
-24 60 0
-18 -62 25 0
-25 18 0
-25 62 0
24 25 23 -56 0
-56 59 0
-44 -61 57 0
-57 44 0
-57 61 0
-50 -63 58 0
-58 50 0
-58 63 0
57 58 56 -59 0
-64 -66 0
-64 -68 0
-65 -67 0
-65 -69 0
-66 -68 0
-66 -70 0
-67 -69 0
-67 -71 0
-68 -70 0
-69 -71 0
